10	10
4	155	1	3	262	162	3	6	5	399
141	130	1	1	47	126	184	355	14	1
294	32	104	298	1	1	39	5	1	225
5	324	3	126	43	1	177	2	26	293
63	94	300	62	4	9	218	2	247	1
7	1	452	1	251	24	261	1	1	1
1	1	127	1	5	165	3	1	695	1
1	151	1	473	177	65	1	56	6	69
64	111	10	11	1	446	1	346	1	9
420	1	1	24	209	1	113	226	4	1
